##############################################
####                SECTION: basic
##############################################
 ecut 38
 nsppol 2
 nband 7
 occopt 3
 tolvrs 1e-08
 ngkpt 8 8 8
 shiftk    0.0    0.0    0.0
 nshiftk 1
 kptopt 1
##############################################
####                SECTION: files
##############################################
 indata_prefix "indata/in"
 outdata_prefix "outdata/out"
 tmpdata_prefix "tmpdata/tmp"
 pseudos "/home/wjing/PycharmProjects/abinit_jobflow/statics/pseudos/O.psp8"
##############################################
####               SECTION: gstate
##############################################
 spinat
    0.0    0.0    0.6
 nspinor 1
 nspden 2
 charge 0.0
 tsmear 0.0036749322175655 Ha
##############################################
####                  STRUCTURE
##############################################
 natom 1
 ntypat 1
 typat 1
 znucl 8
 xred    0.0000000000    0.0000000000    0.0000000000
 acell    1.0    1.0    1.0
 rprim
   -2.3287109521    2.3287109521    2.3287109521
    2.3287109521   -2.3287109521    2.3287109521
    2.3287109521    2.3287109521   -2.3287109521


#<JSON>
#{
#    "pseudos": [
#        {
#            "@module": "pymatgen.io.abinit.pseudos",
#            "@class": "NcAbinitPseudo",
#            "basename": "O.psp8",
#            "type": "NcAbinitPseudo",
#            "symbol": "O",
#            "Z": 8,
#            "Z_val": 6.0,
#            "l_max": 2,
#            "md5": "82677f2d5fc099143d868ac32c0e3561",
#            "filepath": "/home/wjing/PycharmProjects/abinit_jobflow/statics/pseudos/O.psp8"
#        }
#    ]
#}
#</JSON>